2 0 2 0
1 0 1 0
0 0 2 5
5 0 1 8
3 0 1 11
2 1 3 5
1 1 2 8
5 1 3 11
0 1 0 6
4 0 2 13
3 1 0 16
2 2 5 9
0 2 1 16
3 2 2 22
5 2 5 17
3 3 3 27
1 2 4 13
2 3 0 21
4 1 1 22
1 3 5 26
5 3 0 30
4 2 4 25
4 3 5 36
0 3 3 30
3 4 4 30
2 4 1 30
2 5 4 38
5 4 4 45
1 4 0 40
4 4 0 50
0 4 5 40
3 5 5 43
0 5 4 49
1 5 3 50
5 5 2 49
4 5 3 54

